
Gurobi 11.0.1 (win64) logging started Mon May 13 15:36:40 2024

Set parameter LogFile to value "output/solver_log6.txt"
Gurobi Optimizer version 11.0.1 build v11.0.1rc0 (win64 - Windows 11.0 (22631.2))

CPU model: 11th Gen Intel(R) Core(TM) i7-1165G7 @ 2.80GHz, instruction set [SSE2|AVX|AVX2|AVX512]
Thread count: 4 physical cores, 8 logical processors, using up to 8 threads

Optimize a model with 2224 rows, 430 columns and 41227 nonzeros
Model fingerprint: 0xbbd469ac
Variable types: 248 continuous, 182 integer (182 binary)
Coefficient statistics:
  Matrix range     [4e-01, 1e+05]
  Objective range  [1e+00, 1e+02]
  Bounds range     [1e+00, 1e+00]
  RHS range        [1e-02, 1e+05]

User MIP start produced solution with objective 75090.3 (0.00s)
User MIP start produced solution with objective 75090.3 (0.01s)
Loaded user MIP start with objective 75090.3

Presolve removed 103 rows and 103 columns
Presolve time: 0.05s
Presolved: 2121 rows, 327 columns, 40680 nonzeros
Variable types: 229 continuous, 98 integer (98 binary)

Root relaxation: objective 7.526349e+04, 636 iterations, 0.04 seconds (0.08 work units)

    Nodes    |    Current Node    |     Objective Bounds      |     Work
 Expl Unexpl |  Obj  Depth IntInf | Incumbent    BestBd   Gap | It/Node Time

     0     0 75263.4948    0    3 75090.3279 75263.4948  0.23%     -    0s
     0     0 75263.4948    0    3 75090.3279 75263.4948  0.23%     -    0s
     0     0 75263.4948    0    3 75090.3279 75263.4948  0.23%     -    0s
     0     0 75263.4948    0    3 75090.3279 75263.4948  0.23%     -    0s
     0     2 75263.4948    0    3 75090.3279 75263.4948  0.23%     -    0s
*   28    14               6    75142.623761 75263.4943  0.16%  12.7    0s
*   35    10               4    75206.925083 75263.4943  0.08%  11.6    0s

Explored 51 nodes (1574 simplex iterations) in 0.51 seconds (0.71 work units)
Thread count was 8 (of 8 available processors)

Solution count 4: 75206.9 75206.9 75142.6 75090.3 

Optimal solution found (tolerance 1.00e-04)
Best objective 7.520692508308e+04, best bound 7.520692508308e+04, gap 0.0000%
